\Problem name: compact

Minimize
OBJROW: C
Subject To
ord(0,1):  x(0,1) - x(0,2) >= 2
ord(0,2):  x(0,0) - x(0,1) >= 6
ord(1,1):  x(1,0) - x(1,1) >= 3
ord(1,2):  - x(1,0) + x(1,2) >= 1
ord(2,1):  - x(2,0) + x(2,1) >= 10
ord(2,2):  - x(2,1) + x(2,2) >= 5
triangle2(0,1,0):  y(0,1,0) + y(1,0,0) = 1
triangle2(0,1,1):  y(0,1,1) + y(1,0,1) = 1
triangle2(0,1,2):  y(0,1,2) + y(1,0,2) = 1
triangle2(0,2,0):  y(0,2,0) + y(2,0,0) = 1
triangle2(0,2,1):  y(0,2,1) + y(2,0,1) = 1
triangle2(0,2,2):  y(0,2,2) + y(2,0,2) = 1
triangle2(1,2,0):  y(1,2,0) + y(2,1,0) = 1
triangle2(1,2,1):  y(1,2,1) + y(2,1,1) = 1
triangle2(1,2,2):  y(1,2,2) + y(2,1,2) = 1
MCLinV(0,1,0):  x(0,0) - v(0,1,0) - x(1,0) = 1
MCLinV(1,0,0):  - x(0,0) - v(1,0,0) + x(1,0) = 5
MCLin1(0,1,0):  u(0,1,0) >= -0
MCLin2(0,1,0):  -27 y(1,0,0) - u(0,1,0) <= -0
MCLin3(0,1,0):  34 y(1,0,0) + v(0,1,0) - u(0,1,0) <= 34
MCLin4(0,1,0):  34 y(1,0,0) - u(0,1,0) >= -0
MCLin5(0,1,0):  -27 y(1,0,0) + v(0,1,0) - u(0,1,0) >= -27
MCLin6(1,0,0):  u(1,0,0) >= -0
MCLin7(1,0,0):  -40 y(0,1,0) - u(1,0,0) <= -0
MCLin8(1,0,0):  21 y(0,1,0) + v(1,0,0) - u(1,0,0) <= 21
MCLin9(1,0,0):  21 y(0,1,0) - u(1,0,0) >= -0
MCLin10(1,0,0):  -40 y(0,1,0) + v(1,0,0) - u(1,0,0) >= -40
MCLinV(0,1,1):  x(0,1) - v(0,1,1) - x(1,1) = 3
MCLinV(1,0,1):  - x(0,1) - v(1,0,1) + x(1,1) = 6
MCLin1(0,1,1):  u(0,1,1) >= -0
MCLin2(0,1,1):  -32 y(1,0,1) - u(0,1,1) <= -0
MCLin3(0,1,1):  29 y(1,0,1) + v(0,1,1) - u(0,1,1) <= 29
MCLin4(0,1,1):  29 y(1,0,1) - u(0,1,1) >= -0
MCLin5(0,1,1):  -32 y(1,0,1) + v(0,1,1) - u(0,1,1) >= -32
MCLin6(1,0,1):  u(1,0,1) >= -0
MCLin7(1,0,1):  -38 y(0,1,1) - u(1,0,1) <= -0
MCLin8(1,0,1):  23 y(0,1,1) + v(1,0,1) - u(1,0,1) <= 23
MCLin9(1,0,1):  23 y(0,1,1) - u(1,0,1) >= -0
MCLin10(1,0,1):  -38 y(0,1,1) + v(1,0,1) - u(1,0,1) >= -38
MCLinV(0,1,2):  x(0,2) - v(0,1,2) - x(1,2) = 8
MCLinV(1,0,2):  - x(0,2) - v(1,0,2) + x(1,2) = 2
MCLin1(0,1,2):  u(0,1,2) >= -0
MCLin2(0,1,2):  -43 y(1,0,2) - u(0,1,2) <= -0
MCLin3(0,1,2):  18 y(1,0,2) + v(0,1,2) - u(0,1,2) <= 18
MCLin4(0,1,2):  18 y(1,0,2) - u(0,1,2) >= -0
MCLin5(0,1,2):  -43 y(1,0,2) + v(0,1,2) - u(0,1,2) >= -43
MCLin6(1,0,2):  u(1,0,2) >= -0
MCLin7(1,0,2):  -28 y(0,1,2) - u(1,0,2) <= -0
MCLin8(1,0,2):  33 y(0,1,2) + v(1,0,2) - u(1,0,2) <= 33
MCLin9(1,0,2):  33 y(0,1,2) - u(1,0,2) >= -0
MCLin10(1,0,2):  -28 y(0,1,2) + v(1,0,2) - u(1,0,2) >= -28
MCLinV(0,2,0):  x(0,0) - v(0,2,0) - x(2,0) = 10
MCLinV(2,0,0):  - x(0,0) - v(2,0,0) + x(2,0) = 5
MCLin1(0,2,0):  u(0,2,0) >= -0
MCLin2(0,2,0):  -27 y(2,0,0) - u(0,2,0) <= -0
MCLin3(0,2,0):  28 y(2,0,0) + v(0,2,0) - u(0,2,0) <= 28
MCLin4(0,2,0):  28 y(2,0,0) - u(0,2,0) >= -0
MCLin5(0,2,0):  -27 y(2,0,0) + v(0,2,0) - u(0,2,0) >= -27
MCLin6(2,0,0):  u(2,0,0) >= -0
MCLin7(2,0,0):  -43 y(0,2,0) - u(2,0,0) <= -0
MCLin8(2,0,0):  12 y(0,2,0) + v(2,0,0) - u(2,0,0) <= 12
MCLin9(2,0,0):  12 y(0,2,0) - u(2,0,0) >= -0
MCLin10(2,0,0):  -43 y(0,2,0) + v(2,0,0) - u(2,0,0) >= -43
MCLinV(0,2,1):  x(0,1) - v(0,2,1) - x(2,1) = 5
MCLinV(2,0,1):  - x(0,1) - v(2,0,1) + x(2,1) = 6
MCLin1(0,2,1):  u(0,2,1) >= -0
MCLin2(0,2,1):  -38 y(2,0,1) - u(0,2,1) <= -0
MCLin3(0,2,1):  17 y(2,0,1) + v(0,2,1) - u(0,2,1) <= 17
MCLin4(0,2,1):  17 y(2,0,1) - u(0,2,1) >= -0
MCLin5(0,2,1):  -38 y(2,0,1) + v(0,2,1) - u(0,2,1) >= -38
MCLin6(2,0,1):  u(2,0,1) >= -0
MCLin7(2,0,1):  -28 y(0,2,1) - u(2,0,1) <= -0
MCLin8(2,0,1):  27 y(0,2,1) + v(2,0,1) - u(2,0,1) <= 27
MCLin9(2,0,1):  27 y(0,2,1) - u(2,0,1) >= -0
MCLin10(2,0,1):  -28 y(0,2,1) + v(2,0,1) - u(2,0,1) >= -28
MCLinV(0,2,2):  x(0,2) - v(0,2,2) - x(2,2) = 3
MCLinV(2,0,2):  - x(0,2) - v(2,0,2) + x(2,2) = 2
MCLin1(0,2,2):  u(0,2,2) >= -0
MCLin2(0,2,2):  -43 y(2,0,2) - u(0,2,2) <= -0
MCLin3(0,2,2):  12 y(2,0,2) + v(0,2,2) - u(0,2,2) <= 12
MCLin4(0,2,2):  12 y(2,0,2) - u(0,2,2) >= -0
MCLin5(0,2,2):  -43 y(2,0,2) + v(0,2,2) - u(0,2,2) >= -43
MCLin6(2,0,2):  u(2,0,2) >= -0
MCLin7(2,0,2):  -17 y(0,2,2) - u(2,0,2) <= -0
MCLin8(2,0,2):  38 y(0,2,2) + v(2,0,2) - u(2,0,2) <= 38
MCLin9(2,0,2):  38 y(0,2,2) - u(2,0,2) >= -0
MCLin10(2,0,2):  -17 y(0,2,2) + v(2,0,2) - u(2,0,2) >= -17
MCLinV(1,2,0):  x(1,0) - v(1,2,0) - x(2,0) = 10
MCLinV(2,1,0):  - x(1,0) - v(2,1,0) + x(2,0) = 1
MCLin1(1,2,0):  u(1,2,0) >= -0
MCLin2(1,2,0):  -32 y(2,1,0) - u(1,2,0) <= -0
MCLin3(1,2,0):  24 y(2,1,0) + v(1,2,0) - u(1,2,0) <= 24
MCLin4(1,2,0):  24 y(2,1,0) - u(1,2,0) >= -0
MCLin5(1,2,0):  -32 y(2,1,0) + v(1,2,0) - u(1,2,0) >= -32
MCLin6(2,1,0):  u(2,1,0) >= -0
MCLin7(2,1,0):  -35 y(1,2,0) - u(2,1,0) <= -0
MCLin8(2,1,0):  21 y(1,2,0) + v(2,1,0) - u(2,1,0) <= 21
MCLin9(2,1,0):  21 y(1,2,0) - u(2,1,0) >= -0
MCLin10(2,1,0):  -35 y(1,2,0) + v(2,1,0) - u(2,1,0) >= -35
MCLinV(1,2,1):  x(1,1) - v(1,2,1) - x(2,1) = 5
MCLinV(2,1,1):  - x(1,1) - v(2,1,1) + x(2,1) = 3
MCLin1(1,2,1):  u(1,2,1) >= -0
MCLin2(1,2,1):  -40 y(2,1,1) - u(1,2,1) <= -0
MCLin3(1,2,1):  16 y(2,1,1) + v(1,2,1) - u(1,2,1) <= 16
MCLin4(1,2,1):  16 y(2,1,1) - u(1,2,1) >= -0
MCLin5(1,2,1):  -40 y(2,1,1) + v(1,2,1) - u(1,2,1) >= -40
MCLin6(2,1,1):  u(2,1,1) >= -0
MCLin7(2,1,1):  -24 y(1,2,1) - u(2,1,1) <= -0
MCLin8(2,1,1):  32 y(1,2,1) + v(2,1,1) - u(2,1,1) <= 32
MCLin9(2,1,1):  32 y(1,2,1) - u(2,1,1) >= -0
MCLin10(2,1,1):  -24 y(1,2,1) + v(2,1,1) - u(2,1,1) >= -24
MCLinV(1,2,2):  x(1,2) - v(1,2,2) - x(2,2) = 3
MCLinV(2,1,2):  - x(1,2) - v(2,1,2) + x(2,2) = 8
MCLin1(1,2,2):  u(1,2,2) >= -0
MCLin2(1,2,2):  -39 y(2,1,2) - u(1,2,2) <= -0
MCLin3(1,2,2):  17 y(2,1,2) + v(1,2,2) - u(1,2,2) <= 17
MCLin4(1,2,2):  17 y(2,1,2) - u(1,2,2) >= -0
MCLin5(1,2,2):  -39 y(2,1,2) + v(1,2,2) - u(1,2,2) >= -39
MCLin6(2,1,2):  u(2,1,2) >= -0
MCLin7(2,1,2):  -28 y(1,2,2) - u(2,1,2) <= -0
MCLin8(2,1,2):  28 y(1,2,2) + v(2,1,2) - u(2,1,2) <= 28
MCLin9(2,1,2):  28 y(1,2,2) - u(2,1,2) >= -0
MCLin10(2,1,2):  -28 y(1,2,2) + v(2,1,2) - u(2,1,2) >= -28
makespan(0):  C - x(0,0) >= 5
makespan(1):  C - x(1,2) >= 8
makespan(2):  C - x(2,2) >= 3
cut_clique_0(012,0):  0.10000 x(1,0) + 0.17500 x(2,0) >= 1
cut_clique_1(012,0):  0.07692 x(0,0) + 0.01538 x(1,0) + 0.02604 x(2,0) >= 1
cut_clique_2(012,0):  0.05237 x(0,0) + 0.04239 x(1,0) + 0.03491 x(2,0) >= 1
cut_clique_0:  0.06034 x(2,0) + 0.01724 x(1,2) + 0.04598 x(2,2) >= 1
cut_clique_1:  0.03260 x(0,0) + 0.00652 x(1,0) + 0.02173 x(2,0) + 0.00993 x(1,2) + 0.02649 x(2,2) >= 1
Bounds
 0 <= C <= 43
 8 <= x(0,0) <= 38
 0 <= y(0,1,0) <= 1
 0 <= y(1,0,0) <= 1
 -27 <= v(0,1,0) <= 34
 -40 <= v(1,0,0) <= 21
 -430 <= u(0,1,0)
 -430 <= u(1,0,0)
 0 <= y(0,2,0) <= 1
 0 <= y(2,0,0) <= 1
 -27 <= v(0,2,0) <= 28
 -43 <= v(2,0,0) <= 12
 -430 <= u(0,2,0)
 -430 <= u(2,0,0)
 3 <= x(1,0) <= 34
 0 <= y(1,2,0) <= 1
 0 <= y(2,1,0) <= 1
 -32 <= v(1,2,0) <= 24
 -35 <= v(2,1,0) <= 21
 -430 <= u(1,2,0)
 -430 <= u(2,1,0)
 0 <= x(2,0) <= 25
 2 <= x(0,1) <= 32
 0 <= y(0,1,1) <= 1
 0 <= y(1,0,1) <= 1
 -32 <= v(0,1,1) <= 29
 -38 <= v(1,0,1) <= 23
 -430 <= u(0,1,1)
 -430 <= u(1,0,1)
 0 <= y(0,2,1) <= 1
 0 <= y(2,0,1) <= 1
 -38 <= v(0,2,1) <= 17
 -28 <= v(2,0,1) <= 27
 -430 <= u(0,2,1)
 -430 <= u(2,0,1)
 0 <= x(1,1) <= 31
 0 <= y(1,2,1) <= 1
 0 <= y(2,1,1) <= 1
 -40 <= v(1,2,1) <= 16
 -24 <= v(2,1,1) <= 32
 -430 <= u(1,2,1)
 -430 <= u(2,1,1)
 10 <= x(2,1) <= 35
 0 <= x(0,2) <= 30
 0 <= y(0,1,2) <= 1
 0 <= y(1,0,2) <= 1
 -43 <= v(0,1,2) <= 18
 -28 <= v(1,0,2) <= 33
 -430 <= u(0,1,2)
 -430 <= u(1,0,2)
 0 <= y(0,2,2) <= 1
 0 <= y(2,0,2) <= 1
 -43 <= v(0,2,2) <= 12
 -17 <= v(2,0,2) <= 38
 -430 <= u(0,2,2)
 -430 <= u(2,0,2)
 4 <= x(1,2) <= 35
 0 <= y(1,2,2) <= 1
 0 <= y(2,1,2) <= 1
 -39 <= v(1,2,2) <= 17
 -28 <= v(2,1,2) <= 28
 -430 <= u(1,2,2)
 -430 <= u(2,1,2)
 15 <= x(2,2) <= 40
Integers
C x(0,0) y(0,1,0) y(1,0,0) v(0,1,0) v(1,0,0) u(0,1,0) u(1,0,0) y(0,2,0) y(2,0,0) 
v(0,2,0) v(2,0,0) u(0,2,0) u(2,0,0) x(1,0) y(1,2,0) y(2,1,0) v(1,2,0) v(2,1,0) u(1,2,0) 
u(2,1,0) x(2,0) x(0,1) y(0,1,1) y(1,0,1) v(0,1,1) v(1,0,1) u(0,1,1) u(1,0,1) y(0,2,1) 
y(2,0,1) v(0,2,1) v(2,0,1) u(0,2,1) u(2,0,1) x(1,1) y(1,2,1) y(2,1,1) v(1,2,1) v(2,1,1) 
u(1,2,1) u(2,1,1) x(2,1) x(0,2) y(0,1,2) y(1,0,2) v(0,1,2) v(1,0,2) u(0,1,2) u(1,0,2) 
y(0,2,2) y(2,0,2) v(0,2,2) v(2,0,2) u(0,2,2) u(2,0,2) x(1,2) y(1,2,2) y(2,1,2) v(1,2,2) 
v(2,1,2) u(1,2,2) u(2,1,2) x(2,2) 
End
